TIME 50
11699
52104
15180
52104
20027
52104
21312
52104
18887
52104
19620
52104
19979
52104
17758
52104
13302
52104
20700
52104
TIME 100
15551
52104
11961
52104
21872
52104
13157
52104
22726
52104
16345
52104
23034
52104
23050
52104
15333
52104
22817
52104
TIME 150
20513
52104
24174
52104
25184
52104
21605
52104
16454
52104
24828
52104
24437
52104
22457
52104
22636
52104
19990
52104
TIME 200
20951
52104
21039
52104
25334
52104
25932
52104
13414
52104
24278
52104
20670
52104
25674
52104
